NAME /Users/henri/Research/solvers/instances/idol-instances/robust/collection/cbp_Subramanyam_et_al_2020/CapBud_N20_6/models/uncertain_technology_matrix/
ROWS
 N  OBJ
 L  capacity
 L  c_2535
 L  c_2536
 L  c_2537
 L  c_2538
 L  c_2539
 L  c_2540
 L  c_2541
 L  c_2542
 L  c_2543
 L  c_2544
 L  c_2545
 L  c_2546
 L  c_2547
 L  c_2548
 L  c_2549
 L  c_2550
 L  c_2551
 L  c_2552
 L  c_2553
 L  c_2554
COLUMNS
    MARKER    'MARKER'                 'INTORG'
    x_0        OBJ        -1.64223
    x_0        c_2535     1
    x_0        capacity   0.328446
    x_1        OBJ        -4.39988
    x_1        c_2536     1
    x_1        capacity   0.879977
    x_2        OBJ        -1.0301
    x_2        c_2537     1
    x_2        capacity   0.20602
    x_3        OBJ        -9.24272
    x_3        c_2538     1
    x_3        capacity   1.84854
    x_4        OBJ        -6.86185
    x_4        c_2539     1
    x_4        capacity   1.37237
    x_5        OBJ        -1.01005
    x_5        c_2540     1
    x_5        capacity   0.202009
    x_6        OBJ        -7.3797
    x_6        c_2541     1
    x_6        capacity   1.47594
    x_7        OBJ        -3.03423
    x_7        c_2542     1
    x_7        capacity   0.606846
    x_8        OBJ        -9.2036
    x_8        c_2543     1
    x_8        capacity   1.84072
    x_9        OBJ        -0.636492
    x_9        c_2544     1
    x_9        capacity   0.127298
    x_10       OBJ        -3.11349
    x_10       c_2545     1
    x_10       capacity   0.622699
    x_11       OBJ        -8.52546
    x_11       c_2546     1
    x_11       capacity   1.70509
    x_12       OBJ        -1.03309
    x_12       c_2547     1
    x_12       capacity   0.206619
    x_13       OBJ        -2.73823
    x_13       c_2548     1
    x_13       capacity   0.547646
    x_14       OBJ        -1.74724
    x_14       c_2549     1
    x_14       capacity   0.349447
    x_15       OBJ        -8.92527
    x_15       c_2550     1
    x_15       capacity   1.78505
    x_16       OBJ        -4.79864
    x_16       c_2551     1
    x_16       capacity   0.959727
    x_17       OBJ        -8.56048
    x_17       c_2552     1
    x_17       capacity   1.7121
    x_18       OBJ        -3.26443
    x_18       c_2553     1
    x_18       capacity   0.652887
    x_19       OBJ        -6.6905
    x_19       c_2554     1
    x_19       capacity   1.3381
    y_0        OBJ        -1.31378
    y_0        c_2535     1
    y_0        capacity   0.328446
    y_1        OBJ        -3.51991
    y_1        c_2536     1
    y_1        capacity   0.879977
    y_2        OBJ        -0.824082
    y_2        c_2537     1
    y_2        capacity   0.20602
    y_3        OBJ        -7.39418
    y_3        c_2538     1
    y_3        capacity   1.84854
    y_4        OBJ        -5.48948
    y_4        c_2539     1
    y_4        capacity   1.37237
    y_5        OBJ        -0.808038
    y_5        c_2540     1
    y_5        capacity   0.202009
    y_6        OBJ        -5.90376
    y_6        c_2541     1
    y_6        capacity   1.47594
    y_7        OBJ        -2.42739
    y_7        c_2542     1
    y_7        capacity   0.606846
    y_8        OBJ        -7.36288
    y_8        c_2543     1
    y_8        capacity   1.84072
    y_9        OBJ        -0.509194
    y_9        c_2544     1
    y_9        capacity   0.127298
    y_10       OBJ        -2.4908
    y_10       c_2545     1
    y_10       capacity   0.622699
    y_11       OBJ        -6.82037
    y_11       c_2546     1
    y_11       capacity   1.70509
    y_12       OBJ        -0.826474
    y_12       c_2547     1
    y_12       capacity   0.206619
    y_13       OBJ        -2.19058
    y_13       c_2548     1
    y_13       capacity   0.547646
    y_14       OBJ        -1.39779
    y_14       c_2549     1
    y_14       capacity   0.349447
    y_15       OBJ        -7.14021
    y_15       c_2550     1
    y_15       capacity   1.78505
    y_16       OBJ        -3.83891
    y_16       c_2551     1
    y_16       capacity   0.959727
    y_17       OBJ        -6.84838
    y_17       c_2552     1
    y_17       capacity   1.7121
    y_18       OBJ        -2.61155
    y_18       c_2553     1
    y_18       capacity   0.652887
    y_19       OBJ        -5.3524
    y_19       c_2554     1
    y_19       capacity   1.3381
    MARKER    'MARKER'                 'INTEND'
RHS
    RHS       capacity   46.9188
    RHS       c_2535     1
    RHS       c_2536     1
    RHS       c_2537     1
    RHS       c_2538     1
    RHS       c_2539     1
    RHS       c_2540     1
    RHS       c_2541     1
    RHS       c_2542     1
    RHS       c_2543     1
    RHS       c_2544     1
    RHS       c_2545     1
    RHS       c_2546     1
    RHS       c_2547     1
    RHS       c_2548     1
    RHS       c_2549     1
    RHS       c_2550     1
    RHS       c_2551     1
    RHS       c_2552     1
    RHS       c_2553     1
    RHS       c_2554     1
BOUNDS
 LI BND       x_0        0
 UI BND       x_0        1
 LI BND       x_1        0
 UI BND       x_1        1
 LI BND       x_2        0
 UI BND       x_2        1
 LI BND       x_3        0
 UI BND       x_3        1
 LI BND       x_4        0
 UI BND       x_4        1
 LI BND       x_5        0
 UI BND       x_5        1
 LI BND       x_6        0
 UI BND       x_6        1
 LI BND       x_7        0
 UI BND       x_7        1
 LI BND       x_8        0
 UI BND       x_8        1
 LI BND       x_9        0
 UI BND       x_9        1
 LI BND       x_10       0
 UI BND       x_10       1
 LI BND       x_11       0
 UI BND       x_11       1
 LI BND       x_12       0
 UI BND       x_12       1
 LI BND       x_13       0
 UI BND       x_13       1
 LI BND       x_14       0
 UI BND       x_14       1
 LI BND       x_15       0
 UI BND       x_15       1
 LI BND       x_16       0
 UI BND       x_16       1
 LI BND       x_17       0
 UI BND       x_17       1
 LI BND       x_18       0
 UI BND       x_18       1
 LI BND       x_19       0
 UI BND       x_19       1
 LI BND       y_0        0
 UI BND       y_0        1
 LI BND       y_1        0
 UI BND       y_1        1
 LI BND       y_2        0
 UI BND       y_2        1
 LI BND       y_3        0
 UI BND       y_3        1
 LI BND       y_4        0
 UI BND       y_4        1
 LI BND       y_5        0
 UI BND       y_5        1
 LI BND       y_6        0
 UI BND       y_6        1
 LI BND       y_7        0
 UI BND       y_7        1
 LI BND       y_8        0
 UI BND       y_8        1
 LI BND       y_9        0
 UI BND       y_9        1
 LI BND       y_10       0
 UI BND       y_10       1
 LI BND       y_11       0
 UI BND       y_11       1
 LI BND       y_12       0
 UI BND       y_12       1
 LI BND       y_13       0
 UI BND       y_13       1
 LI BND       y_14       0
 UI BND       y_14       1
 LI BND       y_15       0
 UI BND       y_15       1
 LI BND       y_16       0
 UI BND       y_16       1
 LI BND       y_17       0
 UI BND       y_17       1
 LI BND       y_18       0
 UI BND       y_18       1
 LI BND       y_19       0
 UI BND       y_19       1
ENDATA
